Tried aggregator 2 times.
MIP Presolve eliminated 10 rows and 6 columns.
MIP Presolve modified 60 coefficients.
Aggregator did 60 substitutions.
Reduced MIP has 215 rows, 191 columns, and 510 nonzeros.
Reduced MIP has 120 binaries, 11 generals, 0 SOSs, and 0 indicators.
Presolve time = 0.00 sec. (0.45 ticks)
Found incumbent of value 5.000000 after 0.00 sec. (0.77 ticks)
Probing fixed 30 vars, tightened 40 bounds.
Probing time = 0.00 sec. (0.58 ticks)
Tried aggregator 3 times.
MIP Presolve eliminated 49 rows and 46 columns.
MIP Presolve modified 24 coefficients.
Aggregator did 66 substitutions.
Reduced MIP has 100 rows, 79 columns, and 258 nonzeros.
Reduced MIP has 61 binaries, 18 generals, 0 SOSs, and 0 indicators.
Presolve time = 0.00 sec. (0.66 ticks)
Probing time = 0.00 sec. (0.13 ticks)
Tried aggregator 1 time.
MIP Presolve modified 6 coefficients.
Reduced MIP has 100 rows, 79 columns, and 258 nonzeros.
Reduced MIP has 61 binaries, 18 generals, 0 SOSs, and 0 indicators.
Presolve time = 0.00 sec. (0.13 ticks)
Probing time = 0.00 sec. (0.13 ticks)
Clique table members: 42.
MIP emphasis: balance optimality and feasibility.
MIP search method: dynamic search.
Parallel mode: deterministic, using up to 4 threads.
Root relaxation solution time = 0.00 sec. (0.14 ticks)

        Nodes                                         Cuts/
   Node  Left     Objective  IInf  Best Integer    Best Bound    ItCnt     Gap

*     0+    0                            5.0000        1.0000       34   80.00%
      0     0        1.0000    40        5.0000        1.0000       34   80.00%
      0     0        1.0000    12        5.0000      Cuts: 14       48   80.00%
*     0+    0                            2.0000        1.0000       48   50.00%
*     0     0      integral     0        1.0000       Cuts: 7       58    0.00%
      0     0        cutoff              1.0000        1.0000       58    0.00%
Elapsed time = 0.02 sec. (4.76 ticks, tree = 0.00 MB, solutions = 3)

Clique cuts applied:  2
Implied bound cuts applied:  4
Zero-half cuts applied:  8
Gomory fractional cuts applied:  4

Root node processing (before b&c):
  Real time             =    0.02 sec. (4.77 ticks)
Parallel b&c, 4 threads:
  Real time             =    0.00 sec. (0.00 ticks)
  Sync time (average)   =    0.00 sec.
  Wait time (average)   =    0.00 sec.
                          ------------
Total (root+branch&cut) =    0.02 sec. (4.77 ticks)
